17
13
6 7 4 1 15 13 12 0 14 3 8
1 11 15 16 10 13 14 6 0 3 7 12 5 8 9 2
0 1 11 4 13 14 16
2 10 4 1 9 3 13 12 14 0 6 7 16 8 15
3 10 2 14 6 9
0 9 12
3 13 12 5 15 16 1 8 4 10 7 9 0 14
14 11 9 15 5 7 8 10
4 16 2 10 1
10 7 2 9 14 4 8 15 0 11 12
5 6 14 16 8 10 12 0 2 15 1 11 7
11 4 5 16 8 13 2 0
15 10 16 12 7 6
